c Sudoku solution
p cnf 729 0
127 0
146 0
198 0
224 0
243 0
255 0
281 0
296 0
326 0
351 0
369 0
385 0
437 0
536 0
595 0
629 0
657 0
664 0
162 0
154 0
732 0
789 0
183 0
179 0
499 0
848 0
347 0
268 0
277 0
212 0
239 0
587 0
861 0
563 0
928 0
778 0
934 0
744 0
131 0
115 0
986 0
676 0
313 0
338 0
611 0
522 0
688 0
721 0
765 0
967 0
975 0
991 0
953 0
756 0
793 0
897 0
717 0
816 0
919 0
859 0
942 0
645 0
452 0
441 0
549 0
466 0
558 0
571 0
484 0
692 0
473 0
425 0
633 0
418 0
514 0
823 0
835 0
882 0
874 0
372 0
394 0
